language ESSENCE' 1.0
letting lastdx=99
letting cage be [
[22,6,1,7,1,0,0, 0,0, 0,0],
[9,13,8,13,7,0,0, 0,0, 0,0],
[16,2,9,2,10,3,10,0,0, 0,0],
[10,16,15,0,0, 0,0, 0,0, 0,0],
[52,13,12,13,13,13,14,12,14,12,13],
[28,13,15,14,15,14,14,15,14,15,15],
[24,9,5,10,5,10,4,0,0, 0,0],
[17,4,1,4,2,3,2,0,0, 0,0],
[40,12,8,12,7,11,7,10,7,9,7],
[11,13,16,12,16,0,0, 0,0, 0,0],
[30,9,16,9,15,9,14,0,0, 0,0],
[39,4,14,5,14,5,13,5,12,4,12],
[20,16,16,15,16,14,16,0,0, 0,0],
[11,4,7,0,0, 0,0, 0,0, 0,0],
[31,6,8,7,8,7,9,0,0, 0,0],
[44,3,15,2,15,1,15,1,14,2,14],
[36,1,6,1,7,2,7,3,7,3,8],
[15,3,16,0,0, 0,0, 0,0, 0,0],
[9,14,4,0,0, 0,0, 0,0, 0,0],
[4,7,3,0,0, 0,0, 0,0, 0,0],
[22,2,12,1,12,0,0, 0,0, 0,0],
[40,12,5,11,5,11,4,12,4,0,0],
[32,4,8,4,9,3,9,4,10,4,11],
[27,12,1,11,1,0,0, 0,0, 0,0],
[2,10,12,0,0, 0,0, 0,0, 0,0],
[54,5,10,5,11,6,11,6,12,0,0],
[3,12,6,0,0, 0,0, 0,0, 0,0],
[2,14,2,0,0, 0,0, 0,0, 0,0],
[36,16,3,16,4,15,4,15,5,15,6],
[42,9,8,10,8,10,9,10,10,9,10],
[9,6,6,6,7,0,0, 0,0, 0,0],
[2,3,14,0,0, 0,0, 0,0, 0,0],
[15,5,6,0,0, 0,0, 0,0, 0,0],
[14,2,2,0,0, 0,0, 0,0, 0,0],
[9,7,14,6,14,0,0, 0,0, 0,0],
[26,8,16,8,15,0,0, 0,0, 0,0],
[9,7,11,0,0, 0,0, 0,0, 0,0],
[4,8,6,0,0, 0,0, 0,0, 0,0],
[36,5,15,5,16,4,16,4,15,0,0],
[31,11,14,11,13,10,13,10,14,0,0],
[3,4,5,0,0, 0,0, 0,0, 0,0],
[30,9,6,10,6,11,6,0,0, 0,0],
[31,11,2,10,2,10,1,9,1,8,1],
[15,15,10,0,0, 0,0, 0,0, 0,0],
[4,1,9,0,0, 0,0, 0,0, 0,0],
[31,16,6,16,5,16,7,15,7,0,0],
[9,11,12,0,0, 0,0, 0,0, 0,0],
[11,3,11,0,0, 0,0, 0,0, 0,0],
[8,13,3,0,0, 0,0, 0,0, 0,0],
[38,7,12,8,12,8,13,8,14,0,0],
[41,14,7,14,8,14,9,0,0, 0,0],
[5,4,3,0,0, 0,0, 0,0, 0,0],
[22,5,8,5,7,0,0, 0,0, 0,0],
[38,1,3,1,2,1,1,2,1,3,1],
[6,11,10,12,10,0,0, 0,0, 0,0],
[16,1,16,2,16,0,0, 0,0, 0,0],
[10,7,10,0,0, 0,0, 0,0, 0,0],
[7,5,3,0,0, 0,0, 0,0, 0,0],
[11,8,2,0,0, 0,0, 0,0, 0,0],
[26,7,5,7,4,6,4,0,0, 0,0],
[3,10,15,0,0, 0,0, 0,0, 0,0],
[24,2,4,2,3,3,3,0,0, 0,0],
[26,12,12,12,11,11,11,0,0, 0,0],
[9,7,16,7,15,0,0, 0,0, 0,0],
[16,15,2,0,0, 0,0, 0,0, 0,0],
[21,15,9,16,9,0,0, 0,0, 0,0],
[5,12,2,0,0, 0,0, 0,0, 0,0],
[50,15,13,16,13,16,14,16,12,0,0],
[16,5,4,0,0, 0,0, 0,0, 0,0],
[8,9,13,0,0, 0,0, 0,0, 0,0],
[19,5,9,6,9,6,10,0,0, 0,0],
[7,14,1,0,0, 0,0, 0,0, 0,0],
[1,13,6,0,0, 0,0, 0,0, 0,0],
[1,9,2,0,0, 0,0, 0,0, 0,0],
[4,13,10,0,0, 0,0, 0,0, 0,0],
[40,13,9,12,9,11,9,11,8,0,0],
[25,15,8,16,8,0,0, 0,0, 0,0],
[27,14,10,14,11,13,11,0,0, 0,0],
[15,16,1,15,1,16,2,0,0, 0,0],
[18,7,13,6,13,0,0, 0,0, 0,0],
[2,16,10,0,0, 0,0, 0,0, 0,0],
[17,7,7,7,6,0,0, 0,0, 0,0],
[46,6,2,6,3,7,2,5,2,5,1],
[9,15,11,16,11,0,0, 0,0, 0,0],
[39,2,6,2,5,1,5,1,4,0,0],
[22,1,8,2,8,0,0, 0,0, 0,0],
[36,1,10,1,11,2,11,0,0, 0,0],
[61,3,4,4,4,3,5,3,6,4,6],
[11,5,5,6,5,0,0, 0,0, 0,0],
[17,6,15,6,16,0,0, 0,0, 0,0],
[14,8,3,0,0, 0,0, 0,0, 0,0],
[20,8,4,8,5,9,4,9,3,0,0],
[40,10,3,11,3,12,3,0,0, 0,0],
[24,10,16,11,16,0,0, 0,0, 0,0],
[27,11,15,12,15,0,0, 0,0, 0,0],
[27,13,1,13,2,0,0, 0,0, 0,0],
[12,13,4,0,0, 0,0, 0,0, 0,0],
[36,13,5,14,5,14,6,0,0, 0,0],
[13,14,3,15,3,0,0, 0,0, 0,0],
[11,14,12,0,0, 0,0, 0,0, 0,0]
]
